SDVRP instances/custom_instances/p02_20_split0.vrp
NAME:p02_20_split
BEST_KNOWN: 0
COMMENT: 0
DIMENSION: 347
CAPACITY: 140
EDGE_WEIGHT_FORMAT: FUNCTION
EDGE_WEIGHT_TYPE: EXACT_2D
NODE_COORD_SECTION
1 0.00000 0.00000
2 16 34
3 16 34
4 16 34
5 16 34
6 16 34
7 16 34
8 16 34
9 16 34
10 -6 -36
11 -6 -36
12 -6 -36
13 -6 -36
14 -6 -36
15 -6 -36
16 -6 -36
17 42 26
18 29 32
19 29 32
20 29 32
21 29 32
22 29 32
23 29 32
24 29 32
25 29 32
26 -6 -7
27 -6 -7
28 -6 -7
29 -6 -7
30 -6 -7
31 -6 -7
32 47 23
33 47 23
34 47 23
35 47 23
36 47 23
37 47 23
38 -1 -2
39 49 -42
40 49 -42
41 49 -42
42 49 -42
43 49 -42
44 46 6
45 46 6
46 46 6
47 46 6
48 42 47
49 42 47
50 25 39
51 25 39
52 25 39
53 25 39
54 25 39
55 25 39
56 -37 -12
57 -37 -12
58 -37 -12
59 -37 -12
60 -37 -12
61 -37 -12
62 -10 -4
63 -10 -4
64 -10 -4
65 -10 -4
66 -10 -4
67 -10 -4
68 -10 -4
69 -40 -49
70 -40 -49
71 -41 13
72 -41 13
73 -41 13
74 11 -23
75 11 -23
76 11 -23
77 11 -23
78 22 -37
79 22 -37
80 22 -37
81 22 -37
82 8 -43
83 8 -43
84 8 -43
85 8 -43
86 8 -43
87 8 -43
88 -21 4
89 -21 4
90 -21 4
91 -21 4
92 -24 -19
93 -24 -19
94 -24 -19
95 -24 -19
96 -24 -19
97 -24 -19
98 -24 -19
99 -13 -1
100 -13 -1
101 -13 -1
102 -13 -1
103 -13 -1
104 -13 -1
105 -39 -25
106 -39 -25
107 -40 46
108 -40 46
109 -40 46
110 36 1
111 36 1
112 36 1
113 36 1
114 36 1
115 36 1
116 -27 -22
117 -27 -22
118 -27 -22
119 -27 -22
120 -27 -22
121 -27 -22
122 -27 -22
123 -27 -22
124 -22 45
125 -22 45
126 -22 45
127 -22 45
128 -22 45
129 -22 45
130 42 -37
131 42 -37
132 7 -38
133 -38 -27
134 -38 -27
135 -38 -27
136 -38 -27
137 -38 -27
138 -38 -27
139 24 32
140 24 32
141 24 32
142 24 32
143 -40 34
144 -40 34
145 -40 34
146 -40 34
147 -40 34
148 -40 34
149 -40 34
150 -40 34
151 -34 50
152 -34 50
153 42 19
154 42 19
155 42 19
156 -1 -48
157 -1 -48
158 -1 -48
159 -1 -48
160 -1 -48
161 -1 -48
162 -1 -48
163 -22 -5
164 -22 -5
165 -5 13
166 -5 13
167 -5 13
168 -5 13
169 -5 13
170 -5 13
171 39 -25
172 39 -25
173 39 -25
174 39 -25
175 39 -25
176 7 -42
177 7 -42
178 7 -42
179 7 -42
180 7 -42
181 7 -42
182 7 -42
183 7 -42
184 -1 -26
185 -1 -26
186 -1 -26
187 -1 -26
188 -1 -26
189 7 -7
190 7 -7
191 7 -7
192 7 -7
193 7 -7
194 48 33
195 48 33
196 48 33
197 48 33
198 21 22
199 21 22
200 -22 19
201 -22 19
202 -22 19
203 -17 -19
204 -17 -19
205 15 7
206 15 7
207 15 7
208 15 7
209 7 3
210 7 3
211 7 3
212 -38 -12
213 -38 -12
214 42 22
215 42 22
216 32 -11
217 32 -11
218 32 -11
219 32 -11
220 32 -11
221 32 -11
222 19 44
223 19 44
224 19 44
225 19 44
226 19 44
227 19 44
228 19 44
229 19 44
230 10 -6
231 10 -6
232 10 -6
233 10 -6
234 15 0
235 15 0
236 15 0
237 15 0
238 -4 -32
239 -4 -32
240 -4 -32
241 -4 -32
242 -4 -32
243 -4 -32
244 10 18
245 10 18
246 10 18
247 10 18
248 10 18
249 32 28
250 32 28
251 32 28
252 32 28
253 32 28
254 34 1
255 34 1
256 34 1
257 34 1
258 4 27
259 4 27
260 4 27
261 4 27
262 4 27
263 4 27
264 4 27
265 4 27
266 41 6
267 41 6
268 41 6
269 41 6
270 41 6
271 41 6
272 -18 -30
273 -18 -30
274 35 19
275 35 19
276 35 19
277 -19 37
278 -19 37
279 -19 37
280 -19 37
281 -19 37
282 -19 37
283 -19 37
284 50 -23
285 50 -23
286 50 -23
287 50 -23
288 20 -42
289 20 -42
290 20 -42
291 20 -42
292 20 -42
293 20 -42
294 20 -42
295 20 -42
296 20 -42
297 -12 -44
298 -12 -44
299 -12 -44
300 -12 -44
301 -12 -44
302 -12 -44
303 -9 48
304 -9 48
305 -9 48
306 32 -17
307 32 -17
308 32 -17
309 32 -17
310 32 -17
311 13 -32
312 13 -32
313 13 -32
314 -42 37
315 -42 37
316 -42 37
317 -42 37
318 -43 -18
319 -43 -18
320 -43 -18
321 9 8
322 9 8
323 9 8
324 9 8
325 9 8
326 9 8
327 -33 -13
328 -33 -13
329 -33 -13
330 -33 -13
331 39 20
332 39 20
333 39 20
334 39 20
335 -27 -44
336 -27 -44
337 -27 -44
338 -27 -44
339 -27 -44
340 -33 30
341 -33 30
342 -33 30
343 -33 30
344 -33 30
345 -33 30
346 23 17
347 23 17
DEMAND_SECTION
1 0
2 28
3 7
4 1
5 1
6 1
7 1
8 1
9 1
10 28
11 28
12 7
13 1
14 1
15 1
16 1
17 28
18 28
19 14
20 7
21 1
22 1
23 1
24 1
25 1
26 28
27 28
28 7
29 1
30 1
31 1
32 14
33 7
34 1
35 1
36 1
37 1
38 28
39 14
40 1
41 1
42 1
43 1
44 28
45 28
46 7
47 1
48 28
49 14
50 14
51 1
52 1
53 1
54 1
55 1
56 28
57 1
58 1
59 1
60 1
61 1
62 28
63 28
64 7
65 1
66 1
67 1
68 1
69 28
70 7
71 28
72 7
73 1
74 28
75 1
76 1
77 1
78 28
79 14
80 1
81 1
82 28
83 28
84 7
85 1
86 1
87 1
88 14
89 1
90 1
91 1
92 14
93 7
94 1
95 1
96 1
97 1
98 1
99 28
100 7
101 1
102 1
103 1
104 1
105 28
106 7
107 28
108 1
109 1
110 14
111 1
112 1
113 1
114 1
115 1
116 28
117 28
118 1
119 1
120 1
121 1
122 1
123 1
124 28
125 7
126 1
127 1
128 1
129 1
130 28
131 1
132 28
133 28
134 1
135 1
136 1
137 1
138 1
139 28
140 28
141 7
142 1
143 28
144 28
145 1
146 1
147 1
148 1
149 1
150 1
151 28
152 7
153 28
154 7
155 1
156 28
157 28
158 1
159 1
160 1
161 1
162 1
163 28
164 7
165 28
166 28
167 7
168 1
169 1
170 1
171 14
172 7
173 1
174 1
175 1
176 28
177 14
178 7
179 1
180 1
181 1
182 1
183 1
184 14
185 1
186 1
187 1
188 1
189 28
190 7
191 1
192 1
193 1
194 28
195 28
196 7
197 1
198 14
199 7
200 28
201 14
202 1
203 28
204 1
205 28
206 14
207 7
208 1
209 28
210 1
211 1
212 28
213 7
214 28
215 14
216 28
217 14
218 7
219 1
220 1
221 1
222 14
223 7
224 1
225 1
226 1
227 1
228 1
229 1
230 28
231 14
232 1
233 1
234 14
235 1
236 1
237 1
238 14
239 7
240 1
241 1
242 1
243 1
244 28
245 7
246 1
247 1
248 1
249 28
250 14
251 7
252 1
253 1
254 28
255 28
256 1
257 1
258 14
259 7
260 1
261 1
262 1
263 1
264 1
265 1
266 14
267 1
268 1
269 1
270 1
271 1
272 28
273 14
274 28
275 14
276 1
277 14
278 1
279 1
280 1
281 1
282 1
283 1
284 28
285 7
286 1
287 1
288 28
289 14
290 7
291 1
292 1
293 1
294 1
295 1
296 1
297 28
298 14
299 1
300 1
301 1
302 1
303 28
304 28
305 1
306 14
307 7
308 1
309 1
310 1
311 28
312 28
313 14
314 28
315 28
316 7
317 1
318 28
319 14
320 1
321 14
322 1
323 1
324 1
325 1
326 1
327 14
328 1
329 1
330 1
331 28
332 1
333 1
334 1
335 28
336 14
337 1
338 1
339 1
340 28
341 28
342 1
343 1
344 1
345 1
346 28
347 1
DEPOT_SECTION
1
-1
EOF