SDVRP instances/custom_instances/p02_20_split0.sol
346 -35 36 34 32 31 33 196 193 194 195 48 47 244 246 -37 28 30 26 29 27 25 66 64 62 65 63 67 -61 101 100 103 102 99 98 164 167 168 165 169 166 -68 69 334 338 335 336 337 301 300 296 298 299 297 238 241 240 187 185 186 -75 74 76 73 294 287 293 289 291 295 292 290 288 80 77 78 79 -87 90 88 89 70 72 71 212 211 60 59 55 56 57 58 326 329 327 328 -93 96 95 91 97 94 92 135 136 134 133 132 137 105 104 318 319 317 -125 124 127 151 150 108 106 107 313 314 316 315 -131 86 85 81 82 182 179 181 176 178 175 180 177 -139 138 141 140 24 17 23 19 18 22 20 21 198 197 -157 160 158 155 161 156 159 83 84 310 311 312 -162 163 116 122 121 118 115 120 119 117 203 202 -184 183 239 237 242 13 11 15 14 9 10 12 271 272 -190 189 192 188 191 232 231 229 230 210 209 208 -199 276 282 281 280 277 278 279 126 123 128 303 304 302 259 261 262 260 -201 200 144 146 143 142 147 145 149 148 342 343 339 344 340 341 -204 206 268 265 266 270 267 269 44 45 43 46 114 112 235 233 234 236 -205 207 256 255 254 253 111 109 113 110 216 217 215 -219 218 220 284 283 285 286 39 41 42 38 40 129 130 170 173 174 172 171 305 309 308 306 307 -243 245 247 3 8 1 5 6 4 2 7 54 49 51 53 50 52 224 223 222 227 228 225 226 221 263 257 264 258 -273 275 274 249 250 248 251 252 346 345 322 321 323 320 -324 325 16 214 213 152 153 154 332 331 333 330 0 





OBJ=
2116.910
BEST_KNOWN=
0.000